language ESSENCE' 1.0
letting values be [[7, 5, 0, 0, 6, 8, 0, 9, 0], [0, 8, 3, 2, 4, 0, 5, 6, 0], [6, 9, 0, 5, 7, 3, 0, 0, 8], [4, 1, 5, 9, 0, 2, 0, 8, 0], [2, 3, 9, 7, 8, 6, 1, 5, 4], [8, 6, 7, 4, 1, 0, 0, 0, 0], [0, 0, 6, 3, 0, 0, 0, 7, 9], [0, 2, 1, 8, 9, 0, 6, 4, 0], [0, 0, 8, 6, 5, 0, 3, 2, 1]]